c colouring generated by benchmark framework
p edge 743 52439
v 1 17
v 2 32
v 3 31
v 4 23
v 5 5
v 6 13
v 7 1
v 8 9
v 9 36
v 10 5
v 11 24
v 12 11
v 13 27
v 14 0
v 15 0
v 16 30
v 17 4
v 18 16
v 19 10
v 20 34
v 21 26
v 22 16
v 23 37
v 24 10
v 25 3
v 26 15
v 27 30
v 28 1
v 29 31
v 30 16
v 31 4
v 32 27
v 33 44
v 34 18
v 35 14
v 36 0
v 37 0
v 38 12
v 39 23
v 40 37
v 41 15
v 42 27
v 43 30
v 44 35
v 45 34
v 46 17
v 47 11
v 48 33
v 49 11
v 50 10
v 51 24
v 52 32
v 53 21
v 54 23
v 55 16
v 56 20
v 57 9
v 58 14
v 59 45
v 60 17
v 61 33
v 62 1
v 63 43
v 64 18
v 65 8
v 66 7
v 67 27
v 68 29
v 69 13
v 70 29
v 71 39
v 72 10
v 73 33
v 74 20
v 75 21
v 76 8
v 77 32
v 78 17
v 79 12
v 80 44
v 81 34
v 82 35
v 83 13
v 84 33
v 85 28
v 86 28
v 87 6
v 88 1
v 89 21
v 90 22
v 91 2
v 92 17
v 93 22
v 94 5
v 95 24
v 96 30
v 97 20
v 98 39
v 99 22
v 100 2
v 101 1
v 102 25
v 103 12
v 104 14
v 105 8
v 106 3
v 107 1
v 108 21
v 109 17
v 110 33
v 111 12
v 112 12
v 113 19
v 114 4
v 115 7
v 116 34
v 117 28
v 118 21
v 119 0
v 120 15
v 121 38
v 122 40
v 123 10
v 124 2
v 125 8
v 126 4
v 127 4
v 128 10
v 129 42
v 130 28
v 131 39
v 132 15
v 133 16
v 134 7
v 135 7
v 136 25
v 137 3
v 138 1
v 139 19
v 140 33
v 141 24
v 142 29
v 143 40
v 144 18
v 145 4
v 146 15
v 147 7
v 148 4
v 149 22
v 150 16
v 151 15
v 152 30
v 153 3
v 154 34
v 155 41
v 156 27
v 157 0
v 158 23
v 159 9
v 160 7
v 161 4
v 162 8
v 163 6
v 164 39
v 165 5
v 166 22
v 167 29
v 168 3
v 169 14
v 170 4
v 171 17
v 172 32
v 173 0
v 174 5
v 175 17
v 176 16
v 177 43
v 178 40
v 179 4
v 180 42
v 181 38
v 182 19
v 183 32
v 184 12
v 185 18
v 186 30
v 187 42
v 188 5
v 189 28
v 190 20
v 191 23
v 192 32
v 193 8
v 194 38
v 195 37
v 196 31
v 197 1
v 198 17
v 199 32
v 200 6
v 201 7
v 202 20
v 203 20
v 204 29
v 205 14
v 206 24
v 207 27
v 208 26
v 209 12
v 210 15
v 211 13
v 212 9
v 213 36
v 214 10
v 215 1
v 216 4
v 217 27
v 218 20
v 219 24
v 220 14
v 221 14
v 222 17
v 223 29
v 224 35
v 225 2
v 226 23
v 227 5
v 228 10
v 229 25
v 230 0
v 231 14
v 232 34
v 233 14
v 234 7
v 235 6
v 236 13
v 237 6
v 238 26
v 239 14
v 240 28
v 241 6
v 242 6
v 243 2
v 244 32
v 245 16
v 246 38
v 247 26
v 248 7
v 249 1
v 250 19
v 251 34
v 252 45
v 253 11
v 254 6
v 255 12
v 256 22
v 257 19
v 258 45
v 259 21
v 260 18
v 261 27
v 262 12
v 263 12
v 264 12
v 265 13
v 266 13
v 267 9
v 268 3
v 269 5
v 270 22
v 271 42
v 272 4
v 273 16
v 274 42
v 275 36
v 276 29
v 277 43
v 278 22
v 279 20
v 280 17
v 281 9
v 282 2
v 283 2
v 284 42
v 285 22
v 286 3
v 287 23
v 288 38
v 289 13
v 290 1
v 291 25
v 292 39
v 293 26
v 294 11
v 295 22
v 296 9
v 297 3
v 298 9
v 299 5
v 300 5
v 301 19
v 302 5
v 303 33
v 304 26
v 305 10
v 306 25
v 307 11
v 308 21
v 309 3
v 310 20
v 311 12
v 312 24
v 313 23
v 314 43
v 315 7
v 316 8
v 317 28
v 318 38
v 319 22
v 320 10
v 321 41
v 322 3
v 323 19
v 324 33
v 325 15
v 326 6
v 327 19
v 328 21
v 329 14
v 330 44
v 331 6
v 332 6
v 333 21
v 334 9
v 335 22
v 336 25
v 337 30
v 338 19
v 339 3
v 340 15
v 341 41
v 342 15
v 343 22
v 344 1
v 345 20
v 346 12
v 347 41
v 348 2
v 349 0
v 350 28
v 351 13
v 352 18
v 353 38
v 354 37
v 355 18
v 356 11
v 357 18
v 358 25
v 359 26
v 360 12
v 361 5
v 362 22
v 363 8
v 364 9
v 365 15
v 366 2
v 367 40
v 368 21
v 369 25
v 370 27
v 371 42
v 372 3
v 373 9
v 374 30
v 375 35
v 376 20
v 377 9
v 378 16
v 379 3
v 380 1
v 381 7
v 382 30
v 383 11
v 384 34
v 385 33
v 386 5
v 387 10
v 388 8
v 389 12
v 390 31
v 391 35
v 392 12
v 393 11
v 394 4
v 395 17
v 396 15
v 397 13
v 398 4
v 399 20
v 400 19
v 401 20
v 402 11
v 403 15
v 404 19
v 405 20
v 406 32
v 407 23
v 408 13
v 409 31
v 410 17
v 411 2
v 412 38
v 413 21
v 414 44
v 415 18
v 416 11
v 417 24
v 418 29
v 419 11
v 420 17
v 421 26
v 422 0
v 423 27
v 424 42
v 425 14
v 426 25
v 427 13
v 428 2
v 429 1
v 430 39
v 431 26
v 432 1
v 433 35
v 434 37
v 435 13
v 436 10
v 437 37
v 438 1
v 439 45
v 440 32
v 441 18
v 442 15
v 443 23
v 444 23
v 445 36
v 446 19
v 447 30
v 448 13
v 449 26
v 450 44
v 451 4
v 452 11
v 453 13
v 454 0
v 455 41
v 456 25
v 457 12
v 458 26
v 459 19
v 460 28
v 461 20
v 462 19
v 463 28
v 464 6
v 465 8
v 466 11
v 467 9
v 468 27
v 469 19
v 470 44
v 471 24
v 472 23
v 473 10
v 474 9
v 475 39
v 476 4
v 477 3
v 478 14
v 479 9
v 480 26
v 481 26
v 482 2
v 483 7
v 484 41
v 485 9
v 486 5
v 487 30
v 488 13
v 489 14
v 490 0
v 491 10
v 492 6
v 493 24
v 494 8
v 495 6
v 496 13
v 497 16
v 498 29
v 499 33
v 500 2
v 501 6
v 502 27
v 503 2
v 504 9
v 505 7
v 506 1
v 507 28
v 508 0
v 509 8
v 510 8
v 511 36
v 512 7
v 513 26
v 514 29
v 515 29
v 516 25
v 517 23
v 518 1
v 519 0
v 520 4
v 521 31
v 522 17
v 523 18
v 524 33
v 525 26
v 526 18
v 527 8
v 528 6
v 529 15
v 530 2
v 531 26
v 532 8
v 533 39
v 534 12
v 535 14
v 536 23
v 537 30
v 538 9
v 539 26
v 540 1
v 541 21
v 542 32
v 543 18
v 544 16
v 545 14
v 546 9
v 547 18
v 548 8
v 549 29
v 550 5
v 551 3
v 552 8
v 553 42
v 554 36
v 555 0
v 556 5
v 557 3
v 558 14
v 559 37
v 560 40
v 561 45
v 562 5
v 563 25
v 564 14
v 565 35
v 566 41
v 567 10
v 568 30
v 569 18
v 570 23
v 571 15
v 572 7
v 573 6
v 574 20
v 575 2
v 576 16
v 577 9
v 578 18
v 579 37
v 580 15
v 581 0
v 582 30
v 583 2
v 584 34
v 585 31
v 586 7
v 587 17
v 588 27
v 589 36
v 590 0
v 591 22
v 592 35
v 593 10
v 594 7
v 595 5
v 596 8
v 597 35
v 598 5
v 599 20
v 600 33
v 601 15
v 602 5
v 603 13
v 604 16
v 605 27
v 606 21
v 607 13
v 608 43
v 609 38
v 610 44
v 611 22
v 612 8
v 613 6
v 614 25
v 615 12
v 616 17
v 617 10
v 618 7
v 619 40
v 620 7
v 621 23
v 622 35
v 623 5
v 624 0
v 625 2
v 626 24
v 627 24
v 628 32
v 629 19
v 630 25
v 631 3
v 632 19
v 633 33
v 634 32
v 635 40
v 636 32
v 637 4
v 638 13
v 639 22
v 640 11
v 641 7
v 642 27
v 643 29
v 644 29
v 645 0
v 646 3
v 647 0
v 648 34
v 649 17
v 650 27
v 651 34
v 652 1
v 653 28
v 654 17
v 655 15
v 656 11
v 657 44
v 658 36
v 659 9
v 660 31
v 661 40
v 662 3
v 663 18
v 664 36
v 665 29
v 666 5
v 667 3
v 668 28
v 669 30
v 670 1
v 671 15
v 672 27
v 673 27
v 674 6
v 675 39
v 676 0
v 677 13
v 678 41
v 679 16
v 680 0
v 681 24
v 682 24
v 683 2
v 684 37
v 685 21
v 686 27
v 687 42
v 688 11
v 689 28
v 690 12
v 691 25
v 692 0
v 693 16
v 694 14
v 695 36
v 696 3
v 697 4
v 698 40
v 699 15
v 700 5
v 701 24
v 702 2
v 703 21
v 704 36
v 705 9
v 706 45
v 707 42
v 708 21
v 709 34
v 710 41
v 711 6
v 712 8
v 713 4
v 714 1
v 715 16
v 716 27
v 717 7
v 718 24
v 719 16
v 720 20
v 721 32
v 722 11
v 723 6
v 724 3
v 725 9
v 726 31
v 727 22
v 728 24
v 729 20
v 730 5
v 731 8
v 732 33
v 733 20
v 734 32
v 735 39
v 736 4
v 737 10
v 738 22
v 739 11
v 740 6
v 741 12
v 742 23
v 743 19
